! def2-TZVP

%casscf
  nel 2
  norb 2
  mult 3,1
  nroots 1,3
end

*xyz 0 3
O 0.0 0.0 0.0
O 0.0 0.0 1.2058
* 
