! def2-TZVP def2-TZVP/C NEVPT2

%casscf
  nel 6
  norb 4
  mult 3,1
  nroots 5,4
  rel
    dosoc true
    dossc true
  end
end

*xyz 0 3
O 0.0 0.0 0.0
O 0.0 0.0 1.2058
* 
