! def2-TZVP def2-TZVP/C moread

%moinp "CASSCF.gbw"

%maxcore 4000

%pal
  nprocs 4
end

%casscf
  nel 8
  norb 10
  mult 3,1
  nroots 1,3
  maxiter 1
end

%mrci
  newblock 3 *
    excitations none
    refs cas(8,10) end
    nroots 1
  end
  newblock 1 *
    excitations none
    refs cas(8,10) end
    nroots 3
  end
  tsel 0.0
  tpre 0.0
  etol 1e-10
  rtol 1e-10
  soc
    dosoc true
    dossc true
  end
end


*xyz 0 3
O 0.0 0.0 0.0
O 0.0 0.0 1.2058
* 
